 Code  2331
 Dimension, Fixed Cost
   100        3000
 Facility, Client, Transportation Cost
     1       13           4
     1       18           3
     1       21           3
     1       23           0
     1       52           0
     1       55           4
     1       60           2
     1       73           0
     1       80           2
     1       91           2
     2        4           2
     2       20           4
     2       27           2
     2       28           4
     2       38           4
     2       61           3
     2       65           1
     2       71           4
     2       77           2
     2       78           1
     3       14           1
     3       16           1
     3       21           1
     3       25           3
     3       38           3
     3       47           0
     3       49           1
     3       51           2
     3       73           0
     3       79           4
     4       23           1
     4       25           0
     4       27           1
     4       31           2
     4       39           3
     4       52           0
     4       57           1
     4       69           4
     4       75           0
     4       80           3
     5       15           0
     5       22           4
     5       27           1
     5       48           4
     5       60           3
     5       63           1
     5       77           1
     5       87           1
     5       89           3
     5       94           4
     6        5           1
     6        7           4
     6       32           3
     6       48           4
     6       68           2
     6       70           1
     6       83           2
     6       89           4
     6       94           4
     6      100           0
     7        4           2
     7       14           0
     7       18           3
     7       42           3
     7       61           1
     7       79           2
     7       81           3
     7       82           4
     7       84           2
     7       91           0
     8        7           3
     8       12           2
     8       20           0
     8       38           1
     8       39           0
     8       43           3
     8       50           2
     8       71           2
     8       72           2
     8       89           2
     9       10           4
     9       16           2
     9       29           1
     9       42           1
     9       49           2
     9       51           4
     9       61           2
     9       71           2
     9       91           0
     9       99           1
    10        1           2
    10        4           2
    10       23           0
    10       26           1
    10       31           0
    10       34           0
    10       57           4
    10       66           1
    10       88           4
    10       95           0
    11       13           3
    11       46           1
    11       47           0
    11       52           3
    11       62           1
    11       71           2
    11       73           4
    11       75           4
    11       99           4
    11      100           0
    12        4           3
    12       16           3
    12       25           2
    12       35           0
    12       37           3
    12       54           4
    12       71           4
    12       73           4
    12       74           1
    12       86           3
    13        1           4
    13        4           3
    13        7           3
    13       21           2
    13       26           0
    13       72           2
    13       77           1
    13       82           4
    13       87           2
    13       99           4
    14       14           0
    14       16           3
    14       20           4
    14       40           1
    14       50           4
    14       54           4
    14       57           3
    14       75           0
    14       79           3
    14      100           2
    15       17           0
    15       35           4
    15       37           2
    15       46           0
    15       48           2
    15       50           2
    15       55           4
    15       56           3
    15       62           3
    15       90           1
    16        5           3
    16       14           3
    16       15           4
    16       19           3
    16       23           3
    16       28           3
    16       44           1
    16       50           2
    16       54           2
    16       79           4
    17       15           2
    17       25           0
    17       29           2
    17       58           1
    17       65           3
    17       74           4
    17       77           4
    17       79           4
    17       85           3
    17       92           3
    18       11           1
    18       17           3
    18       18           0
    18       19           4
    18       20           3
    18       40           1
    18       52           3
    18       58           2
    18       78           4
    18       86           3
    19        4           4
    19        6           3
    19       29           1
    19       30           3
    19       34           4
    19       56           0
    19       60           1
    19       81           3
    19       83           1
    19       97           3
    20       15           4
    20       28           4
    20       54           0
    20       56           2
    20       58           4
    20       62           3
    20       66           0
    20       73           1
    20       79           4
    20       83           0
    21        3           0
    21        5           0
    21       16           1
    21       27           2
    21       45           1
    21       51           1
    21       58           4
    21       80           3
    21       94           4
    21       97           3
    22       15           1
    22       29           1
    22       45           2
    22       54           4
    22       62           4
    22       64           4
    22       90           3
    22       95           4
    22       96           0
    22       97           0
    23        2           3
    23       10           4
    23       19           0
    23       21           0
    23       36           3
    23       69           0
    23       78           0
    23       83           2
    23       86           4
    23      100           0
    24       10           1
    24       18           0
    24       26           2
    24       29           2
    24       33           3
    24       34           4
    24       42           4
    24       65           4
    24       87           2
    24       96           2
    25       19           4
    25       20           4
    25       24           1
    25       43           4
    25       45           0
    25       63           1
    25       65           2
    25       93           3
    25       94           2
    25       96           2
    26        3           3
    26       11           0
    26       16           2
    26       49           1
    26       53           2
    26       54           0
    26       55           0
    26       58           1
    26       77           3
    26       89           1
    27        4           4
    27       25           4
    27       42           0
    27       45           0
    27       52           1
    27       58           4
    27       67           2
    27       76           1
    27       93           4
    27      100           1
    28        2           3
    28       49           1
    28       58           1
    28       60           1
    28       64           0
    28       69           0
    28       75           2
    28       84           0
    28       91           3
    28       99           1
    29        5           1
    29       16           0
    29       26           0
    29       39           0
    29       56           4
    29       57           1
    29       59           3
    29       62           2
    29       69           3
    29       90           2
    30        6           3
    30       15           4
    30       28           2
    30       46           3
    30       47           1
    30       55           1
    30       60           2
    30       61           4
    30       74           3
    30       90           0
    31       14           0
    31       17           0
    31       27           1
    31       38           3
    31       50           3
    31       51           4
    31       61           3
    31       75           1
    31       76           4
    31       93           4
    32        7           2
    32       31           1
    32       45           2
    32       54           3
    32       60           0
    32       63           1
    32       68           4
    32       79           4
    32       85           1
    32       86           3
    33        1           0
    33        9           3
    33       11           0
    33       21           2
    33       47           3
    33       66           1
    33       78           0
    33       89           0
    33       91           3
    33       97           2
    34        8           0
    34       12           3
    34       27           0
    34       29           1
    34       30           2
    34       34           4
    34       48           2
    34       65           2
    34       95           2
    34      100           3
    35       14           0
    35       21           3
    35       29           0
    35       48           1
    35       53           2
    35       55           3
    35       73           4
    35       76           4
    35       82           4
    35       84           2
    36        1           1
    36       37           0
    36       40           3
    36       42           2
    36       57           1
    36       65           1
    36       79           2
    36       81           3
    36       82           2
    36       96           2
    37        4           0
    37        7           2
    37       11           2
    37       26           3
    37       29           3
    37       32           0
    37       41           0
    37       80           3
    37       92           0
    37       96           2
    38       21           4
    38       27           1
    38       31           0
    38       43           1
    38       50           0
    38       64           3
    38       76           0
    38       85           1
    38       86           0
    38       90           1
    39        7           2
    39       15           0
    39       21           4
    39       26           4
    39       27           2
    39       34           2
    39       40           2
    39       48           3
    39       59           2
    39       80           3
    40       12           2
    40       18           2
    40       23           4
    40       25           2
    40       31           2
    40       37           3
    40       39           0
    40       43           1
    40       55           4
    40       88           4
    41       29           0
    41       45           1
    41       50           1
    41       51           2
    41       60           1
    41       62           2
    41       83           0
    41       87           1
    41       92           0
    41       96           2
    42       16           2
    42       18           4
    42       23           2
    42       33           1
    42       35           4
    42       42           0
    42       48           1
    42       49           2
    42       52           3
    42       78           1
    43       11           1
    43       13           4
    43       17           4
    43       35           3
    43       53           4
    43       58           0
    43       60           1
    43       74           1
    43       81           1
    43       90           2
    44       16           4
    44       22           0
    44       28           2
    44       40           1
    44       45           4
    44       53           4
    44       67           1
    44       79           2
    44       90           2
    44       94           1
    45        5           3
    45        6           0
    45        8           1
    45       11           4
    45       13           0
    45       36           2
    45       51           0
    45       70           2
    45       76           1
    45       86           1
    46        3           0
    46        7           1
    46       30           3
    46       45           2
    46       47           3
    46       60           2
    46       66           2
    46       72           3
    46       76           1
    46       97           3
    47       12           3
    47       24           0
    47       25           3
    47       40           3
    47       56           3
    47       60           0
    47       73           1
    47       92           0
    47       97           1
    47      100           1
    48       11           3
    48       19           4
    48       31           2
    48       42           0
    48       43           1
    48       62           1
    48       68           3
    48       71           0
    48       76           2
    48       86           0
    49       13           3
    49       30           4
    49       41           2
    49       45           1
    49       50           2
    49       61           1
    49       70           3
    49       71           0
    49       80           3
    49       97           0
    50       17           3
    50       18           2
    50       26           1
    50       30           2
    50       32           3
    50       33           4
    50       41           4
    50       63           2
    50       74           3
    50       82           0
    51        2           3
    51       12           4
    51       13           4
    51       16           0
    51       27           3
    51       57           4
    51       79           3
    51       93           1
    51       94           1
    51       96           1
    52        2           1
    52        5           3
    52       21           0
    52       33           2
    52       40           3
    52       54           2
    52       58           4
    52       67           2
    52       70           0
    52       85           2
    53        2           2
    53       18           0
    53       21           0
    53       32           1
    53       47           0
    53       55           0
    53       61           0
    53       63           3
    53       72           1
    53       75           2
    54        7           0
    54       31           1
    54       35           1
    54       38           4
    54       44           2
    54       47           1
    54       56           3
    54       59           4
    54       62           4
    54       97           2
    55        2           4
    55        3           2
    55        6           3
    55       13           1
    55       19           3
    55       32           3
    55       62           2
    55       83           2
    55       95           4
    55       97           4
    56        5           2
    56        7           1
    56        8           4
    56       19           0
    56       20           0
    56       26           4
    56       39           3
    56       71           2
    56       84           3
    56       86           1
    57       22           0
    57       32           3
    57       39           3
    57       51           1
    57       55           3
    57       62           1
    57       73           4
    57       76           4
    57       80           2
    57       93           1
    58        3           0
    58        7           0
    58       11           0
    58       25           4
    58       30           3
    58       34           1
    58       40           3
    58       46           4
    58       56           3
    58       66           2
    59        2           1
    59       16           3
    59       17           2
    59       31           0
    59       34           4
    59       45           3
    59       65           2
    59       68           3
    59       98           3
    59      100           0
    60       27           1
    60       35           0
    60       52           0
    60       53           4
    60       57           0
    60       60           1
    60       62           3
    60       68           2
    60       70           3
    60       73           4
    61        1           0
    61        3           2
    61       11           0
    61       38           2
    61       68           4
    61       69           0
    61       83           3
    61       86           4
    61       88           1
    61       96           1
    62        8           4
    62       19           2
    62       22           4
    62       23           0
    62       27           3
    62       29           4
    62       44           0
    62       85           4
    62       88           3
    62       91           2
    63       12           3
    63       13           2
    63       16           4
    63       20           0
    63       40           2
    63       65           0
    63       88           2
    63       92           2
    63       96           2
    63       99           1
    64       11           1
    64       13           1
    64       16           4
    64       29           0
    64       35           4
    64       44           1
    64       64           0
    64       76           2
    64       77           1
    64       80           1
    65        8           1
    65       34           2
    65       36           1
    65       50           4
    65       57           1
    65       61           1
    65       79           4
    65       81           4
    65       84           2
    65       92           0
    66        9           1
    66       31           2
    66       36           1
    66       57           3
    66       64           2
    66       76           1
    66       84           2
    66       90           1
    66       91           2
    66       99           2
    67        3           2
    67        9           3
    67       21           1
    67       24           1
    67       26           0
    67       36           1
    67       68           3
    67       75           3
    67       90           0
    67      100           0
    68       19           3
    68       20           2
    68       22           4
    68       30           1
    68       31           0
    68       55           2
    68       66           4
    68       77           1
    68       90           4
    68       94           3
    69        4           3
    69        9           1
    69       16           4
    69       32           0
    69       34           2
    69       37           3
    69       55           0
    69       56           4
    69       87           3
    69       91           1
    70       16           3
    70       21           4
    70       38           1
    70       48           1
    70       58           4
    70       62           1
    70       63           3
    70       69           2
    70       90           4
    70       92           1
    71        6           1
    71       14           4
    71       22           4
    71       29           3
    71       66           3
    71       72           2
    71       74           3
    71       76           0
    71       88           1
    71       91           0
    72        4           4
    72       13           4
    72       23           4
    72       33           4
    72       46           0
    72       70           1
    72       75           2
    72       78           1
    72       88           1
    72       94           1
    73        8           0
    73       28           0
    73       34           2
    73       36           1
    73       42           4
    73       47           1
    73       53           1
    73       68           3
    73       83           3
    73       88           0
    74        7           2
    74       12           1
    74       13           3
    74       29           1
    74       32           0
    74       65           0
    74       83           3
    74       84           2
    74       87           3
    74       95           0
    75        5           0
    75        7           4
    75       13           4
    75       37           3
    75       50           4
    75       70           4
    75       75           0
    75       81           4
    75       86           3
    75       87           4
    76       13           4
    76       16           0
    76       19           4
    76       27           4
    76       30           2
    76       51           1
    76       53           0
    76       73           0
    76       78           0
    76       79           0
    77        3           1
    77       19           2
    77       30           1
    77       32           1
    77       42           0
    77       55           3
    77       59           2
    77       77           1
    77       83           0
    77      100           4
    78       13           1
    78       26           4
    78       27           0
    78       36           2
    78       41           2
    78       48           0
    78       67           4
    78       71           2
    78       73           0
    78       94           1
    79        7           1
    79       12           1
    79       29           1
    79       34           4
    79       36           2
    79       44           3
    79       48           4
    79       53           4
    79       55           1
    79       56           1
    80       10           0
    80       17           4
    80       23           3
    80       41           4
    80       56           2
    80       59           2
    80       61           0
    80       73           0
    80       81           4
    80       90           4
    81       10           3
    81       20           2
    81       25           4
    81       32           1
    81       39           3
    81       64           0
    81       66           0
    81       78           3
    81       87           2
    81       89           0
    82        3           1
    82        7           1
    82       12           4
    82       17           0
    82       28           1
    82       40           0
    82       55           4
    82       56           0
    82       71           3
    82       74           2
    83        3           1
    83       11           2
    83       29           3
    83       30           3
    83       41           3
    83       63           2
    83       76           3
    83       78           0
    83       83           4
    83       90           0
    84        2           4
    84       13           4
    84       15           1
    84       16           1
    84       22           2
    84       23           0
    84       27           2
    84       50           4
    84       57           2
    84       99           4
    85        4           4
    85        9           0
    85       23           3
    85       24           2
    85       28           3
    85       36           3
    85       37           2
    85       48           3
    85       49           3
    85       97           2
    86        7           0
    86       11           4
    86       14           1
    86       18           3
    86       21           3
    86       38           2
    86       43           1
    86       53           2
    86       55           3
    86       57           1
    87        2           4
    87       24           0
    87       27           0
    87       40           2
    87       58           4
    87       60           3
    87       70           2
    87       74           0
    87       83           0
    87       93           4
    88        2           3
    88        8           1
    88       23           1
    88       31           0
    88       36           0
    88       40           3
    88       56           2
    88       65           1
    88       73           1
    88       97           2
    89        1           4
    89        8           4
    89       17           2
    89       29           2
    89       36           4
    89       43           4
    89       47           3
    89       67           4
    89       69           1
    89       79           4
    90        6           3
    90       23           3
    90       31           2
    90       37           4
    90       41           1
    90       60           0
    90       63           1
    90       87           0
    90       93           0
    90       94           4
    91        4           1
    91       17           0
    91       20           4
    91       34           4
    91       49           1
    91       53           1
    91       63           2
    91       70           0
    91       90           2
    91       93           0
    92       18           1
    92       29           2
    92       32           4
    92       55           2
    92       71           0
    92       79           3
    92       81           4
    92       82           1
    92       92           1
    92       97           3
    93        1           0
    93       31           0
    93       33           4
    93       43           2
    93       59           3
    93       66           1
    93       73           2
    93       92           0
    93       96           4
    93       98           1
    94       24           4
    94       35           2
    94       36           4
    94       48           0
    94       66           2
    94       68           0
    94       72           1
    94       91           4
    94       94           1
    94      100           0
    95       13           2
    95       14           0
    95       16           0
    95       40           3
    95       49           1
    95       61           3
    95       62           0
    95       63           4
    95       96           2
    95       98           4
    96        3           2
    96       15           0
    96       25           4
    96       27           2
    96       31           2
    96       51           1
    96       55           1
    96       78           3
    96       82           4
    96       84           4
    97       17           4
    97       20           1
    97       47           0
    97       56           1
    97       58           4
    97       60           4
    97       65           4
    97       71           2
    97       89           0
    97       95           3
    98        3           1
    98       16           4
    98       25           0
    98       29           0
    98       31           3
    98       32           1
    98       50           4
    98       61           0
    98       76           2
    98       82           1
    99        4           0
    99        7           4
    99       10           4
    99       11           0
    99       26           4
    99       38           3
    99       43           1
    99       54           3
    99       75           4
    99       86           2
   100        2           4
   100        6           2
   100       18           3
   100       22           3
   100       23           1
   100       26           1
   100       28           0
   100       62           1
   100       66           3
   100       99           3
